1204788
32,95,43,85,61,6,30,103,56,74,92,4,67,79,44,20,63,3,83,25,16,107,94,81,2,51,84,59,46,29,52,34,101,98,35,5,1,82,45,90,24,109,10,64,23,15,22,91,89,11,49,66,77,9,37,26,41,38,72,57,75,86,27,69,70,14,39,31,47,8,68,40,28,36,12,65,88,7,18,50,76,73,19,42,60,106,108,33,78,55,13,93,96,62,87,105,99,71,97,104,58,54,102,100,53,17,80,48,21